bisphenol-A polycarbonate (C16H14O3)n, periodic 2_1 chain along x, 12 repeat units

396 atoms
3 atom types

0.0 120.746384 xlo xhi
-15.025 15.025 ylo yhi
-15.025 15.025 zlo zhi

Masses

1 12.011  # C
2 1.008  # H
3 15.999  # O

Atoms # charge

1 3 0.0 120.746384 -0.397523 1.639824
2 1 0.0 0.721816 -0.863854 0.534601
3 1 0.0 1.990632 -0.361236 0.270822
4 1 0.0 2.707292 -0.824236 -0.826506
5 1 0.0 2.155135 -1.789854 -1.660056
6 1 0.0 0.886318 -2.292472 -1.396276
7 1 0.0 0.169659 -1.829472 -0.298948
8 2 0.0 2.419646 0.389028 0.918472
9 2 0.0 3.693135 -0.433713 -1.031457
10 2 0.0 0.457304 -3.042737 -2.043926
11 2 0.0 119.930199 -2.219995 -0.093997
12 1 0.0 2.943976 -2.299488 -2.867906
13 1 0.0 2.277164 -1.810889 -4.167226
14 2 0.0 2.841997 -2.175979 -5.024998
15 2 0.0 1.256330 -2.189805 -4.216431
16 2 0.0 2.261227 -0.721079 -4.179843
17 1 0.0 2.937865 -3.839430 -2.879815
18 2 0.0 3.500681 -4.198325 -3.741518
19 2 0.0 3.398119 -4.211659 -1.964549
20 2 0.0 1.910469 -4.198198 -2.941806
21 1 0.0 4.385211 -1.789854 -2.804534
22 1 0.0 5.192433 -2.120726 -1.722399
23 1 0.0 6.501790 -1.657726 -1.664825
24 1 0.0 7.003925 -0.863854 -2.689387
25 1 0.0 6.196704 -0.532982 -3.771522
26 1 0.0 4.887347 -0.995982 -3.829096
27 2 0.0 4.802284 -2.737548 -0.926336
28 2 0.0 7.128984 -1.914806 -0.824029
29 2 0.0 6.586852 0.083840 -4.567584
30 2 0.0 4.260153 -0.738902 -4.669891
31 3 0.0 8.322702 -0.397523 -2.631399
32 1 0.0 8.797724 -0.000000 -1.443152
33 3 0.0 8.203452 -0.000000 -0.400636
34 3 0.0 10.062199 0.397523 -1.639824
35 1 0.0 10.784014 0.863854 -0.534601
36 1 0.0 12.052831 0.361236 -0.270822
37 1 0.0 12.769491 0.824236 0.826506
38 1 0.0 12.217334 1.789854 1.660056
39 1 0.0 10.948517 2.292472 1.396277
40 1 0.0 10.231857 1.829472 0.298948
41 2 0.0 12.481845 -0.389028 -0.918472
42 2 0.0 13.755334 0.433713 1.031457
43 2 0.0 10.519503 3.042737 2.043926
44 2 0.0 9.246014 2.219995 0.093998
45 1 0.0 13.006175 2.299488 2.867906
46 1 0.0 12.339362 1.810889 4.167226
47 2 0.0 12.904196 2.175979 5.024998
48 2 0.0 11.318528 2.189805 4.216431
49 2 0.0 12.323426 0.721079 4.179843
50 1 0.0 13.000063 3.839430 2.879815
51 2 0.0 13.562880 4.198325 3.741518
52 2 0.0 13.460318 4.211659 1.964549
53 2 0.0 11.972668 4.198198 2.941806
54 1 0.0 14.447410 1.789854 2.804534
55 1 0.0 15.254631 2.120726 1.722399
56 1 0.0 16.563989 1.657726 1.664825
57 1 0.0 17.066124 0.863854 2.689387
58 1 0.0 16.258902 0.532982 3.771522
59 1 0.0 14.949545 0.995982 3.829096
60 2 0.0 14.864483 2.737548 0.926336
61 2 0.0 17.191182 1.914806 0.824029
62 2 0.0 16.649051 -0.083840 4.567584
63 2 0.0 14.322351 0.738902 4.669891
64 3 0.0 18.384901 0.397523 2.631399
65 1 0.0 18.859923 -0.000000 1.443152
66 3 0.0 18.265651 0.000000 0.400636
67 3 0.0 20.124397 -0.397523 1.639824
68 1 0.0 20.846213 -0.863854 0.534601
69 1 0.0 22.115030 -0.361236 0.270822
70 1 0.0 22.831689 -0.824236 -0.826506
71 1 0.0 22.279532 -1.789854 -1.660056
72 1 0.0 21.010716 -2.292472 -1.396277
73 1 0.0 20.294056 -1.829472 -0.298948
74 2 0.0 22.544044 0.389028 0.918472
75 2 0.0 23.817533 -0.433713 -1.031457
76 2 0.0 20.581701 -3.042737 -2.043926
77 2 0.0 19.308213 -2.219995 -0.093998
78 1 0.0 23.068374 -2.299488 -2.867906
79 1 0.0 22.401561 -1.810889 -4.167226
80 2 0.0 22.966395 -2.175979 -5.024998
81 2 0.0 21.380727 -2.189805 -4.216431
82 2 0.0 22.385624 -0.721079 -4.179843
83 1 0.0 23.062262 -3.839430 -2.879815
84 2 0.0 23.625078 -4.198325 -3.741518
85 2 0.0 23.522516 -4.211659 -1.964549
86 2 0.0 22.034866 -4.198198 -2.941806
87 1 0.0 24.509608 -1.789854 -2.804534
88 1 0.0 25.316830 -2.120726 -1.722399
89 1 0.0 26.626187 -1.657726 -1.664825
90 1 0.0 27.128323 -0.863854 -2.689387
91 1 0.0 26.321101 -0.532982 -3.771522
92 1 0.0 25.011744 -0.995982 -3.829096
93 2 0.0 24.926682 -2.737548 -0.926336
94 2 0.0 27.253381 -1.914806 -0.824029
95 2 0.0 26.711249 0.083840 -4.567584
96 2 0.0 24.384550 -0.738902 -4.669891
97 3 0.0 28.447100 -0.397523 -2.631399
98 1 0.0 28.922121 0.000000 -1.443152
99 3 0.0 28.327850 -0.000000 -0.400636
100 3 0.0 30.186596 0.397523 -1.639824
101 1 0.0 30.908411 0.863854 -0.534601
102 1 0.0 32.177228 0.361236 -0.270822
103 1 0.0 32.893888 0.824236 0.826506
104 1 0.0 32.341731 1.789854 1.660056
105 1 0.0 31.072914 2.292472 1.396277
106 1 0.0 30.356254 1.829472 0.298948
107 2 0.0 32.606242 -0.389028 -0.918472
108 2 0.0 33.879731 0.433713 1.031457
109 2 0.0 30.643900 3.042736 2.043926
110 2 0.0 29.370411 2.219995 0.093998
111 1 0.0 33.130572 2.299488 2.867906
112 1 0.0 32.463759 1.810889 4.167226
113 2 0.0 33.028593 2.175978 5.024998
114 2 0.0 31.442926 2.189805 4.216431
115 2 0.0 32.447823 0.721079 4.179843
116 1 0.0 33.124461 3.839430 2.879815
117 2 0.0 33.687277 4.198325 3.741518
118 2 0.0 33.584715 4.211659 1.964549
119 2 0.0 32.097065 4.198198 2.941806
120 1 0.0 34.571807 1.789854 2.804534
121 1 0.0 35.379029 2.120726 1.722399
122 1 0.0 36.688386 1.657726 1.664825
123 1 0.0 37.190521 0.863854 2.689387
124 1 0.0 36.383300 0.532982 3.771522
125 1 0.0 35.073942 0.995982 3.829096
126 2 0.0 34.988880 2.737548 0.926336
127 2 0.0 37.315580 1.914806 0.824029
128 2 0.0 36.773448 -0.083840 4.567584
129 2 0.0 34.446749 0.738902 4.669891
130 3 0.0 38.509298 0.397522 2.631399
131 1 0.0 38.984320 -0.000000 1.443152
132 3 0.0 38.390048 -0.000000 0.400636
133 3 0.0 40.248795 -0.397523 1.639824
134 1 0.0 40.970610 -0.863854 0.534601
135 1 0.0 42.239427 -0.361236 0.270822
136 1 0.0 42.956087 -0.824236 -0.826506
137 1 0.0 42.403930 -1.789854 -1.660056
138 1 0.0 41.135113 -2.292472 -1.396277
139 1 0.0 40.418453 -1.829472 -0.298948
140 2 0.0 42.668441 0.389028 0.918472
141 2 0.0 43.941930 -0.433713 -1.031457
142 2 0.0 40.706099 -3.042736 -2.043926
143 2 0.0 39.432610 -2.219995 -0.093998
144 1 0.0 43.192771 -2.299488 -2.867906
145 1 0.0 42.525958 -1.810889 -4.167226
146 2 0.0 43.090792 -2.175978 -5.024998
147 2 0.0 41.505124 -2.189805 -4.216431
148 2 0.0 42.510022 -0.721079 -4.179843
149 1 0.0 43.186659 -3.839430 -2.879815
150 2 0.0 43.749476 -4.198325 -3.741518
151 2 0.0 43.646913 -4.211659 -1.964549
152 2 0.0 42.159263 -4.198198 -2.941806
153 1 0.0 44.634006 -1.789854 -2.804534
154 1 0.0 45.441227 -2.120726 -1.722399
155 1 0.0 46.750584 -1.657726 -1.664825
156 1 0.0 47.252720 -0.863854 -2.689387
157 1 0.0 46.445498 -0.532982 -3.771522
158 1 0.0 45.136141 -0.995982 -3.829096
159 2 0.0 45.051079 -2.737548 -0.926336
160 2 0.0 47.377778 -1.914806 -0.824029
161 2 0.0 46.835647 0.083840 -4.567584
162 2 0.0 44.508947 -0.738902 -4.669891
163 3 0.0 48.571497 -0.397522 -2.631399
164 1 0.0 49.046519 0.000000 -1.443152
165 3 0.0 48.452247 -0.000000 -0.400636
166 3 0.0 50.310993 0.397523 -1.639824
167 1 0.0 51.032809 0.863854 -0.534601
168 1 0.0 52.301626 0.361236 -0.270822
169 1 0.0 53.018285 0.824236 0.826506
170 1 0.0 52.466128 1.789854 1.660056
171 1 0.0 51.197311 2.292472 1.396277
172 1 0.0 50.480652 1.829472 0.298948
173 2 0.0 52.730640 -0.389028 -0.918472
174 2 0.0 54.004129 0.433713 1.031457
175 2 0.0 50.768297 3.042736 2.043926
176 2 0.0 49.494808 2.219995 0.093998
177 1 0.0 53.254970 2.299488 2.867906
178 1 0.0 52.588157 1.810889 4.167226
179 2 0.0 53.152991 2.175978 5.024998
180 2 0.0 51.567323 2.189805 4.216431
181 2 0.0 52.572220 0.721079 4.179843
182 1 0.0 53.248858 3.839430 2.879815
183 2 0.0 53.811674 4.198325 3.741518
184 2 0.0 53.709112 4.211659 1.964549
185 2 0.0 52.221462 4.198198 2.941806
186 1 0.0 54.696204 1.789854 2.804534
187 1 0.0 55.503426 2.120726 1.722399
188 1 0.0 56.812783 1.657726 1.664825
189 1 0.0 57.314919 0.863854 2.689387
190 1 0.0 56.507697 0.532982 3.771522
191 1 0.0 55.198340 0.995982 3.829096
192 2 0.0 55.113278 2.737548 0.926336
193 2 0.0 57.439977 1.914806 0.824029
194 2 0.0 56.897845 -0.083840 4.567584
195 2 0.0 54.571146 0.738902 4.669891
196 3 0.0 58.633695 0.397522 2.631399
197 1 0.0 59.108717 -0.000000 1.443152
198 3 0.0 58.514445 -0.000000 0.400636
199 3 0.0 60.373192 -0.397523 1.639824
200 1 0.0 61.095007 -0.863854 0.534601
201 1 0.0 62.363824 -0.361236 0.270822
202 1 0.0 63.080484 -0.824236 -0.826506
203 1 0.0 62.528327 -1.789854 -1.660056
204 1 0.0 61.259510 -2.292472 -1.396277
205 1 0.0 60.542850 -1.829472 -0.298948
206 2 0.0 62.792838 0.389028 0.918472
207 2 0.0 64.066327 -0.433713 -1.031457
208 2 0.0 60.830496 -3.042736 -2.043926
209 2 0.0 59.557007 -2.219995 -0.093998
210 1 0.0 63.317168 -2.299488 -2.867906
211 1 0.0 62.650355 -1.810889 -4.167226
212 2 0.0 63.215189 -2.175978 -5.024998
213 2 0.0 61.629522 -2.189805 -4.216431
214 2 0.0 62.634419 -0.721079 -4.179843
215 1 0.0 63.311057 -3.839430 -2.879815
216 2 0.0 63.873873 -4.198325 -3.741518
217 2 0.0 63.771311 -4.211659 -1.964550
218 2 0.0 62.283661 -4.198198 -2.941806
219 1 0.0 64.758403 -1.789854 -2.804534
220 1 0.0 65.565625 -2.120726 -1.722399
221 1 0.0 66.874982 -1.657726 -1.664825
222 1 0.0 67.377117 -0.863854 -2.689387
223 1 0.0 66.569895 -0.532982 -3.771522
224 1 0.0 65.260538 -0.995982 -3.829096
225 2 0.0 65.175476 -2.737548 -0.926336
226 2 0.0 67.502176 -1.914806 -0.824029
227 2 0.0 66.960044 0.083840 -4.567584
228 2 0.0 64.633345 -0.738901 -4.669891
229 3 0.0 68.695894 -0.397522 -2.631399
230 1 0.0 69.170916 0.000000 -1.443152
231 3 0.0 68.576644 0.000000 -0.400636
232 3 0.0 70.435390 0.397523 -1.639824
233 1 0.0 71.157206 0.863854 -0.534601
234 1 0.0 72.426023 0.361236 -0.270822
235 1 0.0 73.142683 0.824236 0.826506
236 1 0.0 72.590526 1.789854 1.660056
237 1 0.0 71.321709 2.292472 1.396277
238 1 0.0 70.605049 1.829472 0.298948
239 2 0.0 72.855037 -0.389028 -0.918472
240 2 0.0 74.128526 0.433713 1.031457
241 2 0.0 70.892695 3.042736 2.043926
242 2 0.0 69.619206 2.219995 0.093998
243 1 0.0 73.379367 2.299488 2.867906
244 1 0.0 72.712554 1.810889 4.167226
245 2 0.0 73.277388 2.175978 5.024998
246 2 0.0 71.691720 2.189805 4.216431
247 2 0.0 72.696617 0.721079 4.179843
248 1 0.0 73.373255 3.839429 2.879815
249 2 0.0 73.936072 4.198324 3.741518
250 2 0.0 73.833509 4.211659 1.964550
251 2 0.0 72.345859 4.198198 2.941806
252 1 0.0 74.820602 1.789854 2.804534
253 1 0.0 75.627823 2.120726 1.722399
254 1 0.0 76.937180 1.657726 1.664825
255 1 0.0 77.439316 0.863854 2.689387
256 1 0.0 76.632094 0.532982 3.771522
257 1 0.0 75.322737 0.995982 3.829096
258 2 0.0 75.237675 2.737548 0.926336
259 2 0.0 77.564374 1.914806 0.824029
260 2 0.0 77.022243 -0.083840 4.567584
261 2 0.0 74.695543 0.738901 4.669891
262 3 0.0 78.758093 0.397522 2.631399
263 1 0.0 79.233114 -0.000000 1.443152
264 3 0.0 78.638843 -0.000000 0.400636
265 3 0.0 80.497589 -0.397523 1.639824
266 1 0.0 81.219405 -0.863854 0.534601
267 1 0.0 82.488221 -0.361236 0.270822
268 1 0.0 83.204881 -0.824236 -0.826506
269 1 0.0 82.652724 -1.789854 -1.660056
270 1 0.0 81.383907 -2.292472 -1.396277
271 1 0.0 80.667248 -1.829472 -0.298948
272 2 0.0 82.917236 0.389028 0.918472
273 2 0.0 84.190724 -0.433713 -1.031457
274 2 0.0 80.954893 -3.042736 -2.043927
275 2 0.0 79.681404 -2.219995 -0.093998
276 1 0.0 83.441565 -2.299488 -2.867906
277 1 0.0 82.774753 -1.810889 -4.167226
278 2 0.0 83.339586 -2.175978 -5.024998
279 2 0.0 81.753919 -2.189805 -4.216431
280 2 0.0 82.758816 -0.721079 -4.179843
281 1 0.0 83.435454 -3.839429 -2.879815
282 2 0.0 83.998270 -4.198324 -3.741518
283 2 0.0 83.895708 -4.211659 -1.964550
284 2 0.0 82.408058 -4.198198 -2.941806
285 1 0.0 84.882800 -1.789854 -2.804534
286 1 0.0 85.690022 -2.120726 -1.722399
287 1 0.0 86.999379 -1.657726 -1.664825
288 1 0.0 87.501514 -0.863854 -2.689387
289 1 0.0 86.694293 -0.532982 -3.771522
290 1 0.0 85.384936 -0.995982 -3.829096
291 2 0.0 85.299874 -2.737548 -0.926336
292 2 0.0 87.626573 -1.914806 -0.824029
293 2 0.0 87.084441 0.083840 -4.567584
294 2 0.0 84.757742 -0.738901 -4.669892
295 3 0.0 88.820291 -0.397522 -2.631399
296 1 0.0 89.295313 0.000000 -1.443152
297 3 0.0 88.701041 0.000000 -0.400636
298 3 0.0 90.559788 0.397523 -1.639824
299 1 0.0 91.281603 0.863854 -0.534601
300 1 0.0 92.550420 0.361236 -0.270822
301 1 0.0 93.267080 0.824236 0.826506
302 1 0.0 92.714923 1.789854 1.660056
303 1 0.0 91.446106 2.292472 1.396277
304 1 0.0 90.729446 1.829472 0.298948
305 2 0.0 92.979434 -0.389028 -0.918472
306 2 0.0 94.252923 0.433713 1.031457
307 2 0.0 91.017092 3.042736 2.043927
308 2 0.0 89.743603 2.219995 0.093998
309 1 0.0 93.503764 2.299488 2.867906
310 1 0.0 92.836951 1.810889 4.167226
311 2 0.0 93.401785 2.175978 5.024998
312 2 0.0 91.816117 2.189805 4.216431
313 2 0.0 92.821015 0.721079 4.179843
314 1 0.0 93.497653 3.839429 2.879815
315 2 0.0 94.060469 4.198324 3.741518
316 2 0.0 93.957907 4.211659 1.964550
317 2 0.0 92.470257 4.198198 2.941806
318 1 0.0 94.944999 1.789854 2.804534
319 1 0.0 95.752221 2.120726 1.722399
320 1 0.0 97.061578 1.657726 1.664825
321 1 0.0 97.563713 0.863854 2.689387
322 1 0.0 96.756491 0.532981 3.771522
323 1 0.0 95.447134 0.995982 3.829096
324 2 0.0 95.362072 2.737548 0.926336
325 2 0.0 97.688771 1.914806 0.824029
326 2 0.0 97.146640 -0.083840 4.567584
327 2 0.0 94.819940 0.738901 4.669892
328 3 0.0 98.882490 0.397522 2.631399
329 1 0.0 99.357512 -0.000000 1.443152
330 3 0.0 98.763240 -0.000000 0.400636
331 3 0.0 100.621986 -0.397523 1.639824
332 1 0.0 101.343802 -0.863854 0.534601
333 1 0.0 102.612619 -0.361236 0.270822
334 1 0.0 103.329278 -0.824236 -0.826506
335 1 0.0 102.777121 -1.789854 -1.660056
336 1 0.0 101.508305 -2.292472 -1.396277
337 1 0.0 100.791645 -1.829472 -0.298948
338 2 0.0 103.041633 0.389028 0.918472
339 2 0.0 104.315122 -0.433713 -1.031457
340 2 0.0 101.079291 -3.042736 -2.043927
341 2 0.0 99.805802 -2.219995 -0.093998
342 1 0.0 103.565963 -2.299488 -2.867906
343 1 0.0 102.899150 -1.810889 -4.167226
344 2 0.0 103.463984 -2.175978 -5.024998
345 2 0.0 101.878316 -2.189805 -4.216431
346 2 0.0 102.883213 -0.721079 -4.179843
347 1 0.0 103.559851 -3.839429 -2.879815
348 2 0.0 104.122668 -4.198324 -3.741518
349 2 0.0 104.020105 -4.211659 -1.964550
350 2 0.0 102.532455 -4.198198 -2.941806
351 1 0.0 105.007198 -1.789854 -2.804534
352 1 0.0 105.814419 -2.120726 -1.722399
353 1 0.0 107.123776 -1.657726 -1.664825
354 1 0.0 107.625912 -0.863854 -2.689387
355 1 0.0 106.818690 -0.532981 -3.771522
356 1 0.0 105.509333 -0.995982 -3.829096
357 2 0.0 105.424271 -2.737548 -0.926336
358 2 0.0 107.750970 -1.914806 -0.824029
359 2 0.0 107.208838 0.083840 -4.567584
360 2 0.0 104.882139 -0.738901 -4.669892
361 3 0.0 108.944689 -0.397522 -2.631399
362 1 0.0 109.419710 0.000000 -1.443152
363 3 0.0 108.825439 0.000000 -0.400636
364 3 0.0 110.684185 0.397523 -1.639824
365 1 0.0 111.406001 0.863854 -0.534601
366 1 0.0 112.674817 0.361236 -0.270822
367 1 0.0 113.391477 0.824236 0.826506
368 1 0.0 112.839320 1.789854 1.660056
369 1 0.0 111.570503 2.292472 1.396277
370 1 0.0 110.853844 1.829472 0.298948
371 2 0.0 113.103831 -0.389028 -0.918472
372 2 0.0 114.377320 0.433713 1.031457
373 2 0.0 111.141489 3.042736 2.043927
374 2 0.0 109.868000 2.219995 0.093998
375 1 0.0 113.628161 2.299488 2.867906
376 1 0.0 112.961349 1.810889 4.167226
377 2 0.0 113.526182 2.175978 5.024998
378 2 0.0 111.940515 2.189805 4.216431
379 2 0.0 112.945412 0.721078 4.179843
380 1 0.0 113.622050 3.839429 2.879815
381 2 0.0 114.184866 4.198324 3.741518
382 2 0.0 114.082304 4.211659 1.964550
383 2 0.0 112.594654 4.198198 2.941806
384 1 0.0 115.069396 1.789854 2.804534
385 1 0.0 115.876618 2.120726 1.722399
386 1 0.0 117.185975 1.657726 1.664825
387 1 0.0 117.688110 0.863853 2.689387
388 1 0.0 116.880889 0.532981 3.771522
389 1 0.0 115.571532 0.995982 3.829096
390 2 0.0 115.486469 2.737548 0.926336
391 2 0.0 117.813169 1.914806 0.824029
392 2 0.0 117.271037 -0.083840 4.567584
393 2 0.0 114.944338 0.738901 4.669892
394 3 0.0 119.006887 0.397522 2.631399
395 1 0.0 119.481909 -0.000000 1.443152
396 3 0.0 118.887637 -0.000000 0.400636
