syndiotactic PP, periodic chain along x, 50 monomers

450 atoms
2 atom types

0.0 127.671786 xlo xhi
-12.139 12.139 ylo yhi
-12.139 12.139 zlo zhi

Masses

1 12.011  # C
2 1.008  # H

Atoms # charge

1 1 0.0 0.000000 0.000000 0.430579
2 2 0.0 0.000000 0.889975 1.059900
3 2 0.0 0.000000 -0.889975 1.059900
4 1 0.0 1.276718 0.000000 -0.430579
5 2 0.0 1.276718 -0.889975 -1.059900
6 1 0.0 1.276718 1.249230 -1.313938
7 2 0.0 2.156148 1.238887 -1.957829
8 2 0.0 0.376535 1.259641 -1.928480
9 2 0.0 1.297471 2.139084 -0.684788
10 1 0.0 2.553436 0.000000 0.430579
11 2 0.0 2.553436 0.889975 1.059900
12 2 0.0 2.553436 -0.889975 1.059900
13 1 0.0 3.830154 0.000000 -0.430579
14 2 0.0 3.830154 0.889975 -1.059900
15 1 0.0 3.830154 -1.249230 -1.313938
16 2 0.0 3.850906 -2.139084 -0.684788
17 2 0.0 2.929971 -1.259641 -1.928480
18 2 0.0 4.709584 -1.238887 -1.957829
19 1 0.0 5.106871 0.000000 0.430579
20 2 0.0 5.106871 0.889975 1.059900
21 2 0.0 5.106871 -0.889975 1.059900
22 1 0.0 6.383589 0.000000 -0.430579
23 2 0.0 6.383589 -0.889975 -1.059900
24 1 0.0 6.383589 1.249230 -1.313938
25 2 0.0 7.263019 1.238887 -1.957829
26 2 0.0 5.483406 1.259641 -1.928480
27 2 0.0 6.404342 2.139084 -0.684788
28 1 0.0 7.660307 0.000000 0.430579
29 2 0.0 7.660307 0.889975 1.059900
30 2 0.0 7.660307 -0.889975 1.059900
31 1 0.0 8.937025 0.000000 -0.430579
32 2 0.0 8.937025 0.889975 -1.059900
33 1 0.0 8.937025 -1.249230 -1.313938
34 2 0.0 8.957778 -2.139084 -0.684788
35 2 0.0 8.036842 -1.259641 -1.928480
36 2 0.0 9.816455 -1.238887 -1.957829
37 1 0.0 10.213743 0.000000 0.430579
38 2 0.0 10.213743 0.889975 1.059900
39 2 0.0 10.213743 -0.889975 1.059900
40 1 0.0 11.490461 0.000000 -0.430579
41 2 0.0 11.490461 -0.889975 -1.059900
42 1 0.0 11.490461 1.249230 -1.313938
43 2 0.0 12.369891 1.238887 -1.957829
44 2 0.0 10.590278 1.259641 -1.928480
45 2 0.0 11.511214 2.139084 -0.684788
46 1 0.0 12.767179 0.000000 0.430579
47 2 0.0 12.767179 0.889975 1.059900
48 2 0.0 12.767179 -0.889975 1.059900
49 1 0.0 14.043896 0.000000 -0.430579
50 2 0.0 14.043896 0.889975 -1.059900
51 1 0.0 14.043896 -1.249230 -1.313938
52 2 0.0 14.064649 -2.139084 -0.684788
53 2 0.0 13.143714 -1.259641 -1.928480
54 2 0.0 14.923327 -1.238887 -1.957829
55 1 0.0 15.320614 0.000000 0.430579
56 2 0.0 15.320614 0.889975 1.059900
57 2 0.0 15.320614 -0.889975 1.059900
58 1 0.0 16.597332 0.000000 -0.430579
59 2 0.0 16.597332 -0.889975 -1.059900
60 1 0.0 16.597332 1.249230 -1.313938
61 2 0.0 17.476762 1.238887 -1.957829
62 2 0.0 15.697149 1.259641 -1.928480
63 2 0.0 16.618085 2.139084 -0.684788
64 1 0.0 17.874050 0.000000 0.430579
65 2 0.0 17.874050 0.889975 1.059900
66 2 0.0 17.874050 -0.889975 1.059900
67 1 0.0 19.150768 0.000000 -0.430579
68 2 0.0 19.150768 0.889975 -1.059900
69 1 0.0 19.150768 -1.249230 -1.313938
70 2 0.0 19.171521 -2.139084 -0.684788
71 2 0.0 18.250585 -1.259641 -1.928480
72 2 0.0 20.030198 -1.238887 -1.957829
73 1 0.0 20.427486 0.000000 0.430579
74 2 0.0 20.427486 0.889975 1.059900
75 2 0.0 20.427486 -0.889975 1.059900
76 1 0.0 21.704204 0.000000 -0.430579
77 2 0.0 21.704204 -0.889975 -1.059900
78 1 0.0 21.704204 1.249230 -1.313938
79 2 0.0 22.583634 1.238887 -1.957829
80 2 0.0 20.804021 1.259641 -1.928480
81 2 0.0 21.724957 2.139084 -0.684788
82 1 0.0 22.980922 0.000000 0.430579
83 2 0.0 22.980922 0.889975 1.059900
84 2 0.0 22.980922 -0.889975 1.059900
85 1 0.0 24.257639 0.000000 -0.430579
86 2 0.0 24.257639 0.889975 -1.059900
87 1 0.0 24.257639 -1.249230 -1.313938
88 2 0.0 24.278392 -2.139084 -0.684788
89 2 0.0 23.357456 -1.259641 -1.928480
90 2 0.0 25.137069 -1.238887 -1.957829
91 1 0.0 25.534357 0.000000 0.430579
92 2 0.0 25.534357 0.889975 1.059900
93 2 0.0 25.534357 -0.889975 1.059900
94 1 0.0 26.811075 0.000000 -0.430579
95 2 0.0 26.811075 -0.889975 -1.059900
96 1 0.0 26.811075 1.249230 -1.313938
97 2 0.0 27.690505 1.238887 -1.957829
98 2 0.0 25.910892 1.259641 -1.928480
99 2 0.0 26.831828 2.139084 -0.684788
100 1 0.0 28.087793 0.000000 0.430579
101 2 0.0 28.087793 0.889975 1.059900
102 2 0.0 28.087793 -0.889975 1.059900
103 1 0.0 29.364511 0.000000 -0.430579
104 2 0.0 29.364511 0.889975 -1.059900
105 1 0.0 29.364511 -1.249230 -1.313938
106 2 0.0 29.385264 -2.139084 -0.684788
107 2 0.0 28.464328 -1.259641 -1.928480
108 2 0.0 30.243941 -1.238887 -1.957829
109 1 0.0 30.641229 0.000000 0.430579
110 2 0.0 30.641229 0.889975 1.059900
111 2 0.0 30.641229 -0.889975 1.059900
112 1 0.0 31.917947 0.000000 -0.430579
113 2 0.0 31.917947 -0.889975 -1.059900
114 1 0.0 31.917947 1.249230 -1.313938
115 2 0.0 32.797377 1.238887 -1.957829
116 2 0.0 31.017764 1.259641 -1.928480
117 2 0.0 31.938699 2.139084 -0.684788
118 1 0.0 33.194664 0.000000 0.430579
119 2 0.0 33.194664 0.889975 1.059900
120 2 0.0 33.194664 -0.889975 1.059900
121 1 0.0 34.471382 0.000000 -0.430579
122 2 0.0 34.471382 0.889975 -1.059900
123 1 0.0 34.471382 -1.249230 -1.313938
124 2 0.0 34.492135 -2.139084 -0.684788
125 2 0.0 33.571199 -1.259641 -1.928480
126 2 0.0 35.350812 -1.238887 -1.957829
127 1 0.0 35.748100 0.000000 0.430579
128 2 0.0 35.748100 0.889975 1.059900
129 2 0.0 35.748100 -0.889975 1.059900
130 1 0.0 37.024818 0.000000 -0.430579
131 2 0.0 37.024818 -0.889975 -1.059900
132 1 0.0 37.024818 1.249230 -1.313938
133 2 0.0 37.904248 1.238887 -1.957829
134 2 0.0 36.124635 1.259641 -1.928480
135 2 0.0 37.045571 2.139084 -0.684788
136 1 0.0 38.301536 0.000000 0.430579
137 2 0.0 38.301536 0.889975 1.059900
138 2 0.0 38.301536 -0.889975 1.059900
139 1 0.0 39.578254 0.000000 -0.430579
140 2 0.0 39.578254 0.889975 -1.059900
141 1 0.0 39.578254 -1.249230 -1.313938
142 2 0.0 39.599007 -2.139084 -0.684788
143 2 0.0 38.678071 -1.259641 -1.928480
144 2 0.0 40.457684 -1.238887 -1.957829
145 1 0.0 40.854972 0.000000 0.430579
146 2 0.0 40.854972 0.889975 1.059900
147 2 0.0 40.854972 -0.889975 1.059900
148 1 0.0 42.131689 0.000000 -0.430579
149 2 0.0 42.131689 -0.889975 -1.059900
150 1 0.0 42.131689 1.249230 -1.313938
151 2 0.0 43.011119 1.238887 -1.957829
152 2 0.0 41.231507 1.259641 -1.928480
153 2 0.0 42.152442 2.139084 -0.684788
154 1 0.0 43.408407 0.000000 0.430579
155 2 0.0 43.408407 0.889975 1.059900
156 2 0.0 43.408407 -0.889975 1.059900
157 1 0.0 44.685125 0.000000 -0.430579
158 2 0.0 44.685125 0.889975 -1.059900
159 1 0.0 44.685125 -1.249230 -1.313938
160 2 0.0 44.705878 -2.139084 -0.684788
161 2 0.0 43.784942 -1.259641 -1.928480
162 2 0.0 45.564555 -1.238887 -1.957829
163 1 0.0 45.961843 0.000000 0.430579
164 2 0.0 45.961843 0.889975 1.059900
165 2 0.0 45.961843 -0.889975 1.059900
166 1 0.0 47.238561 0.000000 -0.430579
167 2 0.0 47.238561 -0.889975 -1.059900
168 1 0.0 47.238561 1.249230 -1.313938
169 2 0.0 48.117991 1.238887 -1.957829
170 2 0.0 46.338378 1.259641 -1.928480
171 2 0.0 47.259314 2.139084 -0.684788
172 1 0.0 48.515279 0.000000 0.430579
173 2 0.0 48.515279 0.889975 1.059900
174 2 0.0 48.515279 -0.889975 1.059900
175 1 0.0 49.791997 0.000000 -0.430579
176 2 0.0 49.791997 0.889975 -1.059900
177 1 0.0 49.791997 -1.249230 -1.313938
178 2 0.0 49.812749 -2.139084 -0.684788
179 2 0.0 48.891814 -1.259641 -1.928480
180 2 0.0 50.671427 -1.238887 -1.957829
181 1 0.0 51.068714 0.000000 0.430579
182 2 0.0 51.068714 0.889975 1.059900
183 2 0.0 51.068714 -0.889975 1.059900
184 1 0.0 52.345432 0.000000 -0.430579
185 2 0.0 52.345432 -0.889975 -1.059900
186 1 0.0 52.345432 1.249230 -1.313938
187 2 0.0 53.224862 1.238887 -1.957829
188 2 0.0 51.445249 1.259641 -1.928480
189 2 0.0 52.366185 2.139084 -0.684788
190 1 0.0 53.622150 0.000000 0.430579
191 2 0.0 53.622150 0.889975 1.059900
192 2 0.0 53.622150 -0.889975 1.059900
193 1 0.0 54.898868 0.000000 -0.430579
194 2 0.0 54.898868 0.889975 -1.059900
195 1 0.0 54.898868 -1.249230 -1.313938
196 2 0.0 54.919621 -2.139084 -0.684788
197 2 0.0 53.998685 -1.259641 -1.928480
198 2 0.0 55.778298 -1.238887 -1.957829
199 1 0.0 56.175586 0.000000 0.430579
200 2 0.0 56.175586 0.889975 1.059900
201 2 0.0 56.175586 -0.889975 1.059900
202 1 0.0 57.452304 0.000000 -0.430579
203 2 0.0 57.452304 -0.889975 -1.059900
204 1 0.0 57.452304 1.249230 -1.313938
205 2 0.0 58.331734 1.238887 -1.957829
206 2 0.0 56.552121 1.259641 -1.928480
207 2 0.0 57.473057 2.139084 -0.684788
208 1 0.0 58.729022 0.000000 0.430579
209 2 0.0 58.729022 0.889975 1.059900
210 2 0.0 58.729022 -0.889975 1.059900
211 1 0.0 60.005740 0.000000 -0.430579
212 2 0.0 60.005740 0.889975 -1.059900
213 1 0.0 60.005740 -1.249230 -1.313938
214 2 0.0 60.026492 -2.139084 -0.684788
215 2 0.0 59.105557 -1.259641 -1.928480
216 2 0.0 60.885170 -1.238887 -1.957829
217 1 0.0 61.282457 0.000000 0.430579
218 2 0.0 61.282457 0.889975 1.059900
219 2 0.0 61.282457 -0.889975 1.059900
220 1 0.0 62.559175 0.000000 -0.430579
221 2 0.0 62.559175 -0.889975 -1.059900
222 1 0.0 62.559175 1.249230 -1.313938
223 2 0.0 63.438605 1.238887 -1.957829
224 2 0.0 61.658992 1.259641 -1.928480
225 2 0.0 62.579928 2.139084 -0.684788
226 1 0.0 63.835893 0.000000 0.430579
227 2 0.0 63.835893 0.889975 1.059900
228 2 0.0 63.835893 -0.889975 1.059900
229 1 0.0 65.112611 0.000000 -0.430579
230 2 0.0 65.112611 0.889975 -1.059900
231 1 0.0 65.112611 -1.249230 -1.313938
232 2 0.0 65.133364 -2.139084 -0.684788
233 2 0.0 64.212428 -1.259641 -1.928480
234 2 0.0 65.992041 -1.238887 -1.957829
235 1 0.0 66.389329 0.000000 0.430579
236 2 0.0 66.389329 0.889975 1.059900
237 2 0.0 66.389329 -0.889975 1.059900
238 1 0.0 67.666047 0.000000 -0.430579
239 2 0.0 67.666047 -0.889975 -1.059900
240 1 0.0 67.666047 1.249230 -1.313938
241 2 0.0 68.545477 1.238887 -1.957829
242 2 0.0 66.765864 1.259641 -1.928480
243 2 0.0 67.686800 2.139084 -0.684788
244 1 0.0 68.942765 0.000000 0.430579
245 2 0.0 68.942765 0.889975 1.059900
246 2 0.0 68.942765 -0.889975 1.059900
247 1 0.0 70.219482 0.000000 -0.430579
248 2 0.0 70.219482 0.889975 -1.059900
249 1 0.0 70.219482 -1.249230 -1.313938
250 2 0.0 70.240235 -2.139084 -0.684788
251 2 0.0 69.319299 -1.259641 -1.928480
252 2 0.0 71.098912 -1.238887 -1.957829
253 1 0.0 71.496200 0.000000 0.430579
254 2 0.0 71.496200 0.889975 1.059900
255 2 0.0 71.496200 -0.889975 1.059900
256 1 0.0 72.772918 0.000000 -0.430579
257 2 0.0 72.772918 -0.889975 -1.059900
258 1 0.0 72.772918 1.249230 -1.313938
259 2 0.0 73.652348 1.238887 -1.957829
260 2 0.0 71.872735 1.259641 -1.928480
261 2 0.0 72.793671 2.139084 -0.684788
262 1 0.0 74.049636 0.000000 0.430579
263 2 0.0 74.049636 0.889975 1.059900
264 2 0.0 74.049636 -0.889975 1.059900
265 1 0.0 75.326354 0.000000 -0.430579
266 2 0.0 75.326354 0.889975 -1.059900
267 1 0.0 75.326354 -1.249230 -1.313938
268 2 0.0 75.347107 -2.139084 -0.684788
269 2 0.0 74.426171 -1.259641 -1.928480
270 2 0.0 76.205784 -1.238887 -1.957829
271 1 0.0 76.603072 0.000000 0.430579
272 2 0.0 76.603072 0.889975 1.059900
273 2 0.0 76.603072 -0.889975 1.059900
274 1 0.0 77.879790 0.000000 -0.430579
275 2 0.0 77.879790 -0.889975 -1.059900
276 1 0.0 77.879790 1.249230 -1.313938
277 2 0.0 78.759220 1.238887 -1.957829
278 2 0.0 76.979607 1.259641 -1.928480
279 2 0.0 77.900542 2.139084 -0.684788
280 1 0.0 79.156507 0.000000 0.430579
281 2 0.0 79.156507 0.889975 1.059900
282 2 0.0 79.156507 -0.889975 1.059900
283 1 0.0 80.433225 0.000000 -0.430579
284 2 0.0 80.433225 0.889975 -1.059900
285 1 0.0 80.433225 -1.249230 -1.313938
286 2 0.0 80.453978 -2.139084 -0.684788
287 2 0.0 79.533042 -1.259641 -1.928480
288 2 0.0 81.312655 -1.238887 -1.957829
289 1 0.0 81.709943 0.000000 0.430579
290 2 0.0 81.709943 0.889975 1.059900
291 2 0.0 81.709943 -0.889975 1.059900
292 1 0.0 82.986661 0.000000 -0.430579
293 2 0.0 82.986661 -0.889975 -1.059900
294 1 0.0 82.986661 1.249230 -1.313938
295 2 0.0 83.866091 1.238887 -1.957829
296 2 0.0 82.086478 1.259641 -1.928480
297 2 0.0 83.007414 2.139084 -0.684788
298 1 0.0 84.263379 0.000000 0.430579
299 2 0.0 84.263379 0.889975 1.059900
300 2 0.0 84.263379 -0.889975 1.059900
301 1 0.0 85.540097 0.000000 -0.430579
302 2 0.0 85.540097 0.889975 -1.059900
303 1 0.0 85.540097 -1.249230 -1.313938
304 2 0.0 85.560850 -2.139084 -0.684788
305 2 0.0 84.639914 -1.259641 -1.928480
306 2 0.0 86.419527 -1.238887 -1.957829
307 1 0.0 86.816815 0.000000 0.430579
308 2 0.0 86.816815 0.889975 1.059900
309 2 0.0 86.816815 -0.889975 1.059900
310 1 0.0 88.093532 0.000000 -0.430579
311 2 0.0 88.093532 -0.889975 -1.059900
312 1 0.0 88.093532 1.249230 -1.313938
313 2 0.0 88.972963 1.238887 -1.957829
314 2 0.0 87.193350 1.259641 -1.928480
315 2 0.0 88.114285 2.139084 -0.684788
316 1 0.0 89.370250 0.000000 0.430579
317 2 0.0 89.370250 0.889975 1.059900
318 2 0.0 89.370250 -0.889975 1.059900
319 1 0.0 90.646968 0.000000 -0.430579
320 2 0.0 90.646968 0.889975 -1.059900
321 1 0.0 90.646968 -1.249230 -1.313938
322 2 0.0 90.667721 -2.139084 -0.684788
323 2 0.0 89.746785 -1.259641 -1.928480
324 2 0.0 91.526398 -1.238887 -1.957829
325 1 0.0 91.923686 0.000000 0.430579
326 2 0.0 91.923686 0.889975 1.059900
327 2 0.0 91.923686 -0.889975 1.059900
328 1 0.0 93.200404 0.000000 -0.430579
329 2 0.0 93.200404 -0.889975 -1.059900
330 1 0.0 93.200404 1.249230 -1.313938
331 2 0.0 94.079834 1.238887 -1.957829
332 2 0.0 92.300221 1.259641 -1.928480
333 2 0.0 93.221157 2.139084 -0.684788
334 1 0.0 94.477122 0.000000 0.430579
335 2 0.0 94.477122 0.889975 1.059900
336 2 0.0 94.477122 -0.889975 1.059900
337 1 0.0 95.753840 0.000000 -0.430579
338 2 0.0 95.753840 0.889975 -1.059900
339 1 0.0 95.753840 -1.249230 -1.313938
340 2 0.0 95.774592 -2.139084 -0.684788
341 2 0.0 94.853657 -1.259641 -1.928480
342 2 0.0 96.633270 -1.238887 -1.957829
343 1 0.0 97.030557 0.000000 0.430579
344 2 0.0 97.030557 0.889975 1.059900
345 2 0.0 97.030557 -0.889975 1.059900
346 1 0.0 98.307275 0.000000 -0.430579
347 2 0.0 98.307275 -0.889975 -1.059900
348 1 0.0 98.307275 1.249230 -1.313938
349 2 0.0 99.186705 1.238887 -1.957829
350 2 0.0 97.407092 1.259641 -1.928480
351 2 0.0 98.328028 2.139084 -0.684788
352 1 0.0 99.583993 0.000000 0.430579
353 2 0.0 99.583993 0.889975 1.059900
354 2 0.0 99.583993 -0.889975 1.059900
355 1 0.0 100.860711 0.000000 -0.430579
356 2 0.0 100.860711 0.889975 -1.059900
357 1 0.0 100.860711 -1.249230 -1.313938
358 2 0.0 100.881464 -2.139084 -0.684788
359 2 0.0 99.960528 -1.259641 -1.928480
360 2 0.0 101.740141 -1.238887 -1.957829
361 1 0.0 102.137429 0.000000 0.430579
362 2 0.0 102.137429 0.889975 1.059900
363 2 0.0 102.137429 -0.889975 1.059900
364 1 0.0 103.414147 0.000000 -0.430579
365 2 0.0 103.414147 -0.889975 -1.059900
366 1 0.0 103.414147 1.249230 -1.313938
367 2 0.0 104.293577 1.238887 -1.957829
368 2 0.0 102.513964 1.259641 -1.928480
369 2 0.0 103.434900 2.139084 -0.684788
370 1 0.0 104.690865 0.000000 0.430579
371 2 0.0 104.690865 0.889975 1.059900
372 2 0.0 104.690865 -0.889975 1.059900
373 1 0.0 105.967583 0.000000 -0.430579
374 2 0.0 105.967583 0.889975 -1.059900
375 1 0.0 105.967583 -1.249230 -1.313938
376 2 0.0 105.988335 -2.139084 -0.684788
377 2 0.0 105.067400 -1.259641 -1.928480
378 2 0.0 106.847013 -1.238887 -1.957829
379 1 0.0 107.244300 0.000000 0.430579
380 2 0.0 107.244300 0.889975 1.059900
381 2 0.0 107.244300 -0.889975 1.059900
382 1 0.0 108.521018 0.000000 -0.430579
383 2 0.0 108.521018 -0.889975 -1.059900
384 1 0.0 108.521018 1.249230 -1.313938
385 2 0.0 109.400448 1.238887 -1.957829
386 2 0.0 107.620835 1.259641 -1.928480
387 2 0.0 108.541771 2.139084 -0.684788
388 1 0.0 109.797736 0.000000 0.430579
389 2 0.0 109.797736 0.889975 1.059900
390 2 0.0 109.797736 -0.889975 1.059900
391 1 0.0 111.074454 0.000000 -0.430579
392 2 0.0 111.074454 0.889975 -1.059900
393 1 0.0 111.074454 -1.249230 -1.313938
394 2 0.0 111.095207 -2.139084 -0.684788
395 2 0.0 110.174271 -1.259641 -1.928480
396 2 0.0 111.953884 -1.238887 -1.957829
397 1 0.0 112.351172 0.000000 0.430579
398 2 0.0 112.351172 0.889975 1.059900
399 2 0.0 112.351172 -0.889975 1.059900
400 1 0.0 113.627890 0.000000 -0.430579
401 2 0.0 113.627890 -0.889975 -1.059900
402 1 0.0 113.627890 1.249230 -1.313938
403 2 0.0 114.507320 1.238887 -1.957829
404 2 0.0 112.727707 1.259641 -1.928480
405 2 0.0 113.648643 2.139084 -0.684788
406 1 0.0 114.904608 0.000000 0.430579
407 2 0.0 114.904608 0.889975 1.059900
408 2 0.0 114.904608 -0.889975 1.059900
409 1 0.0 116.181325 0.000000 -0.430579
410 2 0.0 116.181325 0.889975 -1.059900
411 1 0.0 116.181325 -1.249230 -1.313938
412 2 0.0 116.202078 -2.139084 -0.684788
413 2 0.0 115.281142 -1.259641 -1.928480
414 2 0.0 117.060755 -1.238887 -1.957829
415 1 0.0 117.458043 0.000000 0.430579
416 2 0.0 117.458043 0.889975 1.059900
417 2 0.0 117.458043 -0.889975 1.059900
418 1 0.0 118.734761 0.000000 -0.430579
419 2 0.0 118.734761 -0.889975 -1.059900
420 1 0.0 118.734761 1.249230 -1.313938
421 2 0.0 119.614191 1.238887 -1.957829
422 2 0.0 117.834578 1.259641 -1.928480
423 2 0.0 118.755514 2.139084 -0.684788
424 1 0.0 120.011479 0.000000 0.430579
425 2 0.0 120.011479 0.889975 1.059900
426 2 0.0 120.011479 -0.889975 1.059900
427 1 0.0 121.288197 0.000000 -0.430579
428 2 0.0 121.288197 0.889975 -1.059900
429 1 0.0 121.288197 -1.249230 -1.313938
430 2 0.0 121.308950 -2.139084 -0.684788
431 2 0.0 120.388014 -1.259641 -1.928480
432 2 0.0 122.167627 -1.238887 -1.957829
433 1 0.0 122.564915 0.000000 0.430579
434 2 0.0 122.564915 0.889975 1.059900
435 2 0.0 122.564915 -0.889975 1.059900
436 1 0.0 123.841633 0.000000 -0.430579
437 2 0.0 123.841633 -0.889975 -1.059900
438 1 0.0 123.841633 1.249230 -1.313938
439 2 0.0 124.721063 1.238887 -1.957829
440 2 0.0 122.941450 1.259641 -1.928480
441 2 0.0 123.862385 2.139084 -0.684788
442 1 0.0 125.118350 0.000000 0.430579
443 2 0.0 125.118350 0.889975 1.059900
444 2 0.0 125.118350 -0.889975 1.059900
445 1 0.0 126.395068 0.000000 -0.430579
446 2 0.0 126.395068 0.889975 -1.059900
447 1 0.0 126.395068 -1.249230 -1.313938
448 2 0.0 126.415821 -2.139084 -0.684788
449 2 0.0 125.494885 -1.259641 -1.928480
450 2 0.0 127.274498 -1.238887 -1.957829
